datasets/2-dimensional/CL_03_25_09.vbp
2
1000 1000 
25
287 448 30
602 391 72
555 537 4
279 221 88
706 775 54
571 733 64
606 629 90
545 595 26
321 365 94
668 472 28
718 449 72
406 631 49
465 349 54
627 339 19
226 332 28
597 262 61
271 263 84
382 668 23
464 210 67
249 223 53
272 439 54
666 793 16
563 217 9
497 245 54
603 211 77
