datasets/2-dimensional/CL_03_25_09.txt
1000 1000 
0 30 287 448 
1 72 602 391 
2 4 555 537 
3 88 279 221 
4 54 706 775 
5 64 571 733 
6 90 606 629 
7 26 545 595 
8 94 321 365 
9 28 668 472 
10 72 718 449 
11 49 406 631 
12 54 465 349 
13 19 627 339 
14 28 226 332 
15 61 597 262 
16 84 271 263 
17 23 382 668 
18 67 464 210 
19 53 249 223 
20 54 272 439 
21 16 666 793 
22 9 563 217 
23 54 497 245 
24 77 603 211 
